
Gurobi 6.0.2 (mac64) logging started Sun Oct 11 23:27:06 2015


Gurobi 6.0.2 (mac64) logging started Sun Oct 11 23:44:05 2015


Gurobi 6.0.2 (mac64) logging started Sun Oct 11 23:45:00 2015


Gurobi 6.0.2 (mac64) logging started Tue Oct 13 23:11:08 2015


Gurobi 6.0.2 (mac64) logging started Tue Oct 13 23:12:05 2015


Gurobi 6.0.2 (mac64) logging started Tue Oct 13 23:12:24 2015


Gurobi 6.0.2 (mac64) logging started Tue Oct 13 23:12:33 2015


Gurobi 6.0.2 (mac64) logging started Tue Oct 13 23:13:46 2015


Gurobi 6.0.2 (mac64) logging started Tue Oct 13 23:14:44 2015


Gurobi 6.0.2 (mac64) logging started Tue Oct 13 23:16:20 2015


Gurobi 6.0.2 (mac64) logging started Tue Oct 13 23:16:43 2015


Gurobi 6.0.2 (mac64) logging started Tue Oct 13 23:18:41 2015


Gurobi 6.0.2 (mac64) logging started Tue Oct 13 23:19:17 2015


Gurobi 6.0.2 (mac64) logging started Tue Oct 13 23:23:17 2015


Gurobi 6.0.2 (mac64) logging started Tue Oct 13 23:23:53 2015


Gurobi 6.0.2 (mac64) logging started Tue Oct 13 23:24:14 2015


Gurobi 6.0.2 (mac64) logging started Tue Oct 13 23:24:30 2015


Gurobi 6.0.2 (mac64) logging started Tue Oct 13 23:24:46 2015


Gurobi 6.0.2 (mac64) logging started Tue Oct 13 23:25:09 2015


Gurobi 6.0.2 (mac64) logging started Tue Oct 13 23:25:19 2015


Gurobi 6.0.2 (mac64) logging started Tue Oct 13 23:53:34 2015


Gurobi 6.0.2 (mac64) logging started Tue Oct 13 23:54:29 2015


Gurobi 6.0.2 (mac64) logging started Tue Oct 13 23:56:34 2015


Gurobi 6.0.2 (mac64) logging started Tue Oct 13 23:58:06 2015


Gurobi 6.0.2 (mac64) logging started Tue Oct 13 23:59:06 2015


Gurobi 6.0.2 (mac64) logging started Wed Oct 14 00:01:50 2015


Gurobi 6.0.2 (mac64) logging started Wed Oct 14 00:02:08 2015


Gurobi 6.0.2 (mac64) logging started Wed Oct 14 00:03:35 2015


Gurobi 6.0.2 (mac64) logging started Wed Oct 14 00:04:06 2015


Gurobi 6.0.2 (mac64) logging started Wed Oct 14 11:01:11 2015


Gurobi 6.0.2 (mac64) logging started Wed Oct 14 12:37:32 2015


Gurobi 6.0.2 (mac64) logging started Wed Oct 14 12:37:59 2015


Gurobi 6.0.2 (mac64) logging started Wed Oct 14 12:38:24 2015


Gurobi 6.0.2 (mac64) logging started Wed Oct 14 12:40:21 2015


Gurobi 6.0.2 (mac64) logging started Wed Oct 14 12:40:48 2015


Gurobi 6.0.2 (mac64) logging started Wed Oct 14 12:41:09 2015


Gurobi 6.0.2 (mac64) logging started Wed Oct 14 12:42:03 2015


Gurobi 6.0.2 (mac64) logging started Wed Oct 14 12:42:51 2015


Gurobi 6.0.2 (mac64) logging started Wed Oct 14 12:49:14 2015


Gurobi 6.0.2 (mac64) logging started Wed Oct 14 13:19:43 2015


Gurobi 6.0.2 (mac64) logging started Wed Oct 14 13:54:32 2015


Gurobi 6.0.2 (mac64) logging started Wed Oct 14 13:55:04 2015


Gurobi 6.0.2 (mac64) logging started Wed Oct 14 13:55:56 2015


Gurobi 6.0.2 (mac64) logging started Wed Oct 14 13:58:10 2015


Gurobi 6.0.2 (mac64) logging started Wed Oct 14 14:03:22 2015


Gurobi 6.0.2 (mac64) logging started Wed Oct 14 14:03:46 2015


Gurobi 6.0.2 (mac64) logging started Wed Oct 14 14:04:19 2015


Gurobi 6.0.2 (mac64) logging started Wed Oct 14 14:05:19 2015


Gurobi 6.0.2 (mac64) logging started Wed Oct 14 14:06:42 2015


Gurobi 6.0.2 (mac64) logging started Wed Oct 14 14:08:28 2015


Gurobi 6.0.2 (mac64) logging started Wed Oct 14 14:12:33 2015


Gurobi 6.0.2 (mac64) logging started Wed Oct 14 14:18:08 2015


Gurobi 6.0.2 (mac64) logging started Wed Oct 14 14:22:48 2015


Gurobi 6.0.2 (mac64) logging started Wed Oct 14 14:28:15 2015


Gurobi 6.0.2 (mac64) logging started Wed Oct 14 14:28:49 2015


Gurobi 6.0.2 (mac64) logging started Wed Oct 14 14:29:35 2015


Gurobi 6.0.2 (mac64) logging started Wed Oct 14 14:30:26 2015


Gurobi 6.0.2 (mac64) logging started Wed Oct 14 14:31:36 2015


Gurobi 6.0.2 (mac64) logging started Wed Oct 14 14:32:30 2015


Gurobi 6.0.2 (mac64) logging started Wed Oct 14 14:32:59 2015


Gurobi 6.0.2 (mac64) logging started Wed Oct 14 14:34:14 2015


Gurobi 6.0.2 (mac64) logging started Wed Oct 14 14:34:57 2015


Gurobi 6.0.2 (mac64) logging started Wed Oct 14 14:35:01 2015


Gurobi 6.0.2 (mac64) logging started Wed Oct 14 14:35:08 2015


Gurobi 6.0.2 (mac64) logging started Wed Oct 14 14:36:48 2015


Gurobi 6.0.2 (mac64) logging started Wed Oct 14 14:38:47 2015


Gurobi 6.0.2 (mac64) logging started Wed Oct 14 14:39:49 2015


Gurobi 6.0.2 (mac64) logging started Wed Oct 14 14:40:40 2015


Gurobi 6.0.2 (mac64) logging started Wed Oct 14 14:47:18 2015


Gurobi 6.0.2 (mac64) logging started Wed Oct 14 14:52:27 2015


Gurobi 6.0.2 (mac64) logging started Wed Oct 14 14:52:58 2015


Gurobi 6.0.2 (mac64) logging started Wed Oct 14 14:58:11 2015


Gurobi 6.0.2 (mac64) logging started Wed Oct 14 14:58:46 2015


Gurobi 6.0.2 (mac64) logging started Wed Oct 14 15:01:53 2015


Gurobi 6.0.2 (mac64) logging started Wed Oct 14 15:02:35 2015


Gurobi 6.0.2 (mac64) logging started Wed Oct 14 15:04:06 2015


Gurobi 6.0.2 (mac64) logging started Wed Oct 14 15:07:45 2015


Gurobi 6.0.2 (mac64) logging started Wed Oct 14 15:08:12 2015


Gurobi 6.0.2 (mac64) logging started Wed Oct 14 15:11:12 2015


Gurobi 6.0.2 (mac64) logging started Wed Oct 14 15:20:55 2015


Gurobi 6.0.2 (mac64) logging started Wed Oct 14 15:21:36 2015


Gurobi 6.0.2 (mac64) logging started Wed Oct 14 15:21:46 2015


Gurobi 6.0.2 (mac64) logging started Wed Oct 14 15:22:21 2015


Gurobi 6.0.2 (mac64) logging started Wed Oct 14 15:22:29 2015


Gurobi 6.0.2 (mac64) logging started Wed Oct 14 22:55:09 2015


Gurobi 6.0.2 (mac64) logging started Wed Oct 14 22:55:44 2015


Gurobi 6.0.2 (mac64) logging started Wed Oct 14 22:59:31 2015


Gurobi 6.0.2 (mac64) logging started Wed Oct 14 23:15:15 2015


Gurobi 6.0.2 (mac64) logging started Wed Oct 14 23:19:46 2015


Gurobi 6.0.2 (mac64) logging started Thu Oct 15 00:07:05 2015


Gurobi 6.0.2 (mac64) logging started Thu Oct 15 00:07:29 2015


Gurobi 6.0.2 (mac64) logging started Thu Oct 15 00:07:57 2015


Gurobi 6.0.2 (mac64) logging started Thu Oct 15 00:08:20 2015


Gurobi 6.0.2 (mac64) logging started Thu Oct 15 00:08:44 2015


Gurobi 6.0.2 (mac64) logging started Thu Oct 15 00:09:27 2015


Gurobi 6.0.2 (mac64) logging started Thu Oct 15 00:29:20 2015


Gurobi 6.0.2 (mac64) logging started Thu Oct 15 00:33:52 2015


Gurobi 6.0.2 (mac64) logging started Thu Oct 15 00:33:59 2015


Gurobi 5.6.2 (win64) logging started 10/15/15 00:37:16


Gurobi 6.0.2 (mac64) logging started Thu Oct 15 00:42:25 2015


Gurobi 5.6.2 (win64) logging started 10/15/15 13:23:02

